
Gurobi 11.0.3 (linux64) logging started Mon 18 Nov 2024 07:24:41 PM CST

Set parameter LogFile to value "/home/dlcole3/graph_abstraction/hierarchical_graphs/git_storage/CS1/HP_low_reserves/gurobi_logs/serial/logfile_ST3_6.log"

Gurobi 11.0.3 (linux64) logging started Mon 18 Nov 2024 07:28:16 PM CST

Set parameter LogFile to value "/home/dlcole3/graph_abstraction/hierarchical_graphs/git_storage/CS1/HP_low_reserves/gurobi_logs/serial/logfile_ST3_6.log"
Gurobi Optimizer version 11.0.3 build v11.0.3rc0 (linux64 - "Ubuntu 18.04.3 LTS")

CPU model: Intel(R) Xeon(R) CPU E5-2698 v4 @ 2.20GHz, instruction set [SSE2|AVX|AVX2]
Thread count: 40 physical cores, 80 logical processors, using up to 20 threads

Optimize a model with 29168 rows, 50688 columns and 136175 nonzeros
Model fingerprint: 0x67eb9a35
Variable types: 46944 continuous, 3744 integer (3744 binary)
Coefficient statistics:
  Matrix range     [6e-01, 2e+04]
  Objective range  [2e+00, 2e+04]
  Bounds range     [5e-02, 2e+05]
  RHS range        [5e-02, 7e+03]
Presolve removed 13507 rows and 38204 columns
Presolve time: 0.37s
Presolved: 15661 rows, 12484 columns, 66197 nonzeros
Variable types: 9466 continuous, 3018 integer (3018 binary)
Found heuristic solution: objective 175962.86208
Found heuristic solution: objective 169714.81536
Found heuristic solution: objective 142751.43605

Root relaxation: objective 3.626667e+04, 8153 iterations, 0.35 seconds (0.25 work units)

    Nodes    |    Current Node    |     Objective Bounds      |     Work
 Expl Unexpl |  Obj  Depth IntInf | Incumbent    BestBd   Gap | It/Node Time

     0     0 36266.6705    0    5 142751.436 36266.6705  74.6%     -    1s
H    0     0                    142751.43600 36266.6705  74.6%     -    1s
H    0     0                    61329.167765 36266.6705  40.9%     -    1s
     0     0 36266.6705    0    5 61329.1678 36266.6705  40.9%     -    1s
     0     2 36266.6705    0    5 61329.1678 36266.6705  40.9%     -    1s
H   31    52                    41363.665265 36266.6940  12.3%   9.7    2s
H   32    52                    36611.224323 36266.6940  0.94%  10.8    2s
H  185    28                    36562.349717 36471.3705  0.25%   5.1    2s

Explored 202 nodes (9168 simplex iterations) in 2.53 seconds (1.74 work units)
Thread count was 20 (of 80 available processors)

Solution count 7: 36562.3 36611.2 41363.7 ... 175963

Optimal solution found (tolerance 3.00e-03)
Best objective 3.656234971666e+04, best bound 3.647137047466e+04, gap 0.2488%

User-callback calls 1873, time in user-callback 0.00 sec
